(set-logic QF_S)
(set-option :strings-exp true)
(set-option :produce-models true)
(declare-fun sigmaStar_0 () String)
(declare-fun sigmaStar_1 () String)
(declare-fun sigmaStar_3 () String)
(declare-fun literal_4 () String)
(declare-fun x_5 () String)
(declare-fun literal_6 () String)
(declare-fun x_7 () String)
(declare-fun x_8 () String)
(assert (= literal_4 "\x3c\x6f\x70\x74\x69\x6f\x6e\x20\x76\x61\x6c\x75\x65\x3d\x5c\x22"))
(assert (= x_5 (str.++ literal_4 sigmaStar_3)))
(assert (= literal_6 "\x5c\x22\x3e"))
(assert (= x_7 (str.++ x_5 literal_6)))
(assert (= x_8 (str.++ x_7 sigmaStar_3)))
(assert (str.in.re x_8 (re.++ (re.* re.allchar) (re.++ (str.to.re "\x5c\x3c\x53\x43\x52\x49\x50\x54") (re.* re.allchar)))))
(check-sat)
(get-model)
